<?xml version = "1.0" standalone="yes"?>
<!-- This file has been generated by DOcplex version 2.23.222  -->
<CPLEXSolution version="1.0">
 <header
   problemName="CVRP"
   objectiveValue="7030.9"
  />
 <variables>
  <variable name="x_0_4" index="3" value="1.00000"/>
  <variable name="x_0_7" index="6" value="1.00000"/>
  <variable name="x_0_8" index="7" value="1.00000"/>
  <variable name="x_0_9" index="8" value="1.00000"/>
  <variable name="x_0_10" index="9" value="1.00000"/>
  <variable name="x_0_12" index="11" value="1.00000"/>
  <variable name="x_0_13" index="12" value="1.00000"/>
  <variable name="x_1_6" index="18" value="1.00000"/>
  <variable name="x_2_0" index="26" value="1.00000"/>
  <variable name="x_3_0" index="39" value="1.00000"/>
  <variable name="x_4_0" index="52" value="1.00000"/>
  <variable name="x_5_0" index="65" value="1.00000"/>
  <variable name="x_6_0" index="78" value="1.00000"/>
  <variable name="x_7_5" index="96" value="1.00000"/>
  <variable name="x_8_11" index="114" value="1.00000"/>
  <variable name="x_9_1" index="118" value="1.00000"/>
  <variable name="x_10_0" index="130" value="1.00000"/>
  <variable name="x_11_2" index="145" value="1.00000"/>
  <variable name="x_12_3" index="159" value="1.00000"/>
  <variable name="x_13_0" index="169" value="1.00000"/>
  <variable name="u_1" index="182" value="43.00000"/>
  <variable name="u_2" index="183" value="43.00000"/>
  <variable name="u_3" index="184" value="45.00000"/>
  <variable name="u_4" index="185" value="40.00000"/>
  <variable name="u_5" index="186" value="45.00000"/>
  <variable name="u_6" index="187" value="45.00000"/>
  <variable name="u_7" index="188" value="34.00000"/>
  <variable name="u_8" index="189" value="13.00000"/>
  <variable name="u_9" index="190" value="9.00000"/>
  <variable name="u_10" index="191" value="36.00000"/>
  <variable name="u_11" index="192" value="21.00000"/>
  <variable name="u_12" index="193" value="14.00000"/>
  <variable name="u_13" index="194" value="43.00000"/>
 </variables>
</CPLEXSolution>
